NAME : TW_40_seed_None_id_0
TYPE : CVRPTW
DIMENSION : 11
EDGE_WEIGHT_TYPE : EUC_2D
CAPACITY : 25
SERVICE_TIME : 100
LATE_COEFF : 0
NODE_COORD_SECTION
1	481	483
2	562	755
3	350	603
4	649	9
5	91	322
6	883	469
7	950	518
8	911	361
9	370	779
10	485	665
11	488	428
DEMAND_SECTION
1	0
2	4
3	2
4	10
5	2
6	7
7	1
8	9
9	8
10	1
11	10
TIME_WINDOW_SECTION
1	0	10000
2	8504	10000
3	5139	7201
4	3129	5159
5	5529	7616
6	5466	7445
7	5449	7355
8	5303	7234
9	1271	3328
10	2303	4350
11	2991	5055
DEPOT_SECTION
1
-1
EOF
